30
1 0 1
2 1 5
3 0 8
4 0 3
4 1 1
4 2 1
4 3 2
5 1 2
5 3 2
5 4 3
6 2 6
6 4 5
7 1 6
7 4 1
7 6 6
8 1 1
8 5 3
8 7 6
9 0 8
9 1 6
9 2 6
9 3 4
9 4 2
9 5 2
9 8 7
10 1 7
10 2 5
10 3 3
10 5 1
10 6 7
10 7 2
11 0 1
11 1 4
11 3 8
11 4 2
11 7 8
11 8 2
12 0 3
12 1 7
12 2 5
12 3 7
12 4 6
12 6 5
12 7 6
12 9 2
12 10 6
12 11 7
13 0 6
13 1 8
13 5 3
13 7 6
13 8 6
13 9 7
13 10 1
13 11 5
13 12 7
14 0 1
14 5 5
14 6 3
14 8 7
14 13 1
15 0 6
15 1 3
15 2 2
15 3 2
15 4 2
15 6 1
15 8 5
15 9 5
15 11 3
15 12 2
15 13 7
15 14 2
16 1 5
16 2 7
16 3 2
16 5 4
16 6 6
16 9 1
16 10 5
16 11 8
16 12 5
16 14 4
17 1 1
17 3 8
17 4 4
17 5 2
17 6 2
17 7 2
17 8 4
17 9 8
17 11 2
17 12 7
17 13 7
17 14 1
18 0 5
18 1 7
18 5 2
18 6 5
18 9 1
18 12 7
18 16 6
18 17 2
19 0 1
19 1 8
19 3 1
19 7 2
19 8 4
19 9 5
19 10 3
19 11 3
19 12 2
19 13 6
19 17 3
19 18 3
20 1 1
20 2 2
20 8 6
20 12 6
20 13 8
20 14 5
20 19 1
21 0 5
21 7 1
21 11 3
21 13 2
21 15 3
21 16 7
21 18 7
21 19 5
21 20 8
22 0 2
22 2 8
22 3 8
22 13 7
22 16 6
22 18 1
22 20 5
22 21 8
23 0 4
23 1 7
23 2 3
23 3 7
23 4 8
23 5 5
23 7 5
23 9 8
23 12 3
23 18 5
23 21 4
23 22 5
24 0 2
24 2 5
24 3 2
24 4 5
24 5 5
24 6 1
24 9 6
24 10 2
24 11 7
24 13 3
24 15 7
24 19 8
24 20 4
24 23 5
25 1 2
25 2 5
25 4 7
25 5 6
25 12 4
25 13 6
25 18 5
25 20 3
25 23 6
25 24 3
26 0 3
26 1 5
26 3 6
26 4 3
26 5 8
26 7 7
26 10 2
26 13 1
26 14 3
26 17 8
26 18 1
26 19 3
26 21 5
26 22 2
27 2 5
27 5 7
27 6 5
27 7 2
27 8 7
27 10 6
27 11 4
27 13 3
27 15 8
27 20 8
27 23 3
27 25 2
28 0 3
28 4 5
28 5 5
28 6 6
28 7 7
28 9 4
28 13 5
28 14 2
28 17 8
28 19 6
28 20 2
28 21 3
28 23 6
28 24 4
28 25 4
28 27 8
29 4 3
29 5 5
29 6 2
29 9 6
29 11 6
29 14 8
29 15 4
29 17 6
29 18 2
29 19 8
29 23 3
29 27 7
